x04m01e2t12tp2
3152
3206
3206
3436
3570
3570
3570
3584
3647
3647
3698
3754
3838
3838
3838
3838
3838
3838
3859
3859
3859
3859
3859
3859
3860
3860
3860
3860
3860
3860
3860
3860
3860
3860
3860
3860
3860
3860
3860
3860
3989
3989
3989
3989
3989
3989
3989
3989
3989
3989
3989
4038
4038
4038
4038
4038
4038
4038
4038
4038
4038
4038
4038
4038
4038
4038
4038
4038
4038
4038
4038
4038
4038
4038
4038
4038
4038
4054
4054
4054
4054
4054
4054
4054
4054
4054
4054
4054
4054
4054
4054
4054
4054
4054
4054
4054
4054
4054
4054
4054
4054
4054
4054
4054
4054
4054
4054
4054
4054
4054
4054
4054
4054
4054
4054
4054
4054
4054
4054
4054
4054
4054
4054
4054
4054
4054
4054
4054
4054
4054
4054
4054
4054
4054
4054
4054
4054
4054
4054
4054
4054
4054
4054
4054
4054
4054
4054
4054
4054
4054
4054
4054
4054
4054
4054
4054
4054
4054
4054
4054
4054
4054
4054
4054
4054
4054
4054
4054
4054
4054
4054
4054
4054
4054
4054
4054
4054
4054
4054
4054
4054
4054
4054
4054
4054
4054
4054
4054
4054
4054
4054
4054
4054
4054
4054
4054
4054
4054
4054
4054
4054
4054
4054
4054
4054
4054
4054
4054
4054
4054
4054
4054
4054
4054
4054
4054
4054
4054
4054
4054
4054
4054
4054
4054
4054
4054
4054
4054
4054
4054
4054
4054
4054
4054
4054
4054
4054
4054
4054
4054
4054
4054
4054
4054
4054
4054
4054
4054
4054
4054
4054
4054
4054
4054
4054
4054
4054
4054
4054
4054
4054
4054
4054
4054
4054
4054
4054
4054
4054
4054
4054
4054
4054
4054
4054
4054
4054
4054
4054
4054
4054
4054
4054
4054
4054
4054
4054
4054
4054
4054
4054
4054
4054
4054
4054
4054
4054
4054
4054
4054
4054
4054
4054
4054
4054
4054
4054
4054
4054
4054
4054
4054
4054
4054
4054
4054
4054
4054
4054
4054
4054
4054
4054
4054
4054
4054
4054
4054
4054
4054
4054
4054
4054
4054
4054
4054
4054
4054
4054
4054
4054
4054
4054
4054
4054
4054
4054
4054
4054
4054
4054
4054
4054
4054
4054
4054
4054
4054
4054
4054
4054
4054
4054
4054
4054
4054
4054
4054
4054
4054
4054
4054
4054
4054
4054
4054
4054
4054
4054
4054
4054
4054
4054
4054
4054
4054
4054
4054
4054
4054
4054
4054
4054
4054
4054
4054
4054
4054
4054
4054
4054
4054
4054
4054
4054
4054
4054
4054
4054
4054
4054
4054
4054
4054
4054
4054
4054
4054
4054
4054
4054
4054
4054
4054
4054
4054
4054
4054
4054
4054
4054
4054
4054
4054
4054
4054
4054
4054
4054
4054
4054
4054
4054
4054
4054
4054
4054
4054
4054
4054
4054
4054
4054
4054
4054
4054
4054
4054
4054
4054
4054
4054
4054
4054
4054
4054
4054
4054
4054
4054
4054
4054
4054
4054
4054
4054
4054
4054
4054
4054
4054
4054
4054
4054
4054
4054
4054
4054
4054
4054
4054
4054
4054
4054
4054
4054
4054
4054
4054
4054
4054
4054
4054
4054
4054
4054
4054
4054
4054
4054
4054
4054
4054
4054
4054
4054
4054
4054
4054
4054
4054
4054
4054
4054
4054
4054
4054
4054
4054
4054
4054
4054
4054
4054
4054
4054
4054
4054
4054
4054
4054
4054
4054
4054
4054
4054
4054
4054
4054
4054
4054
4054
4054
4054
4054
4054
4054
4054
4054
4054
4054
4054
4054
4054
4054
4054
4054
4054
4054
4054
4054
4054
4054
4054
4054
4054
4054
4054
4054
4054
4054
4054
4054
4054
4054
4054
4054
4054
4054
4054
4054
4054
4054
4054
4054
4054
4054
4054
4054
4054
4054
4054
4054
4054
4054
4054
4054
4054
4054
4054
4054
4054
4054
4054
4054
4054
4054
4054
4054
4054
4054
4054
4054
4054
4054
4054
4054
4054
4054
4054
4054
4054
4054
4054
4054
4054
4054
4054
4054
4054
4054
4054
4054
4054
4054
4054
4054
4054
4054
4054
4054
4054
4054
4054
4054
4054
4054
4054
4054
4054
4054
4054
4054
4054
4054
4054
4054
4054
4054
4054
4054
4054
4054
4054
4054
4054
4054
4054
4054
4054
4054
4054
4054
4054
4054
4054
4054
4054
4054
4054
4054
4054
4054
4054
4054
4054
4054
4054
4054
4054
4054
4054
4054
4054
4054
4054
4054
4054
4054
4054
4054
4054
4054
4054
4054
4054
4054
4054
4054
4054
4054
4054
4054
4054
4054
4054
4054
4054
4054
4054
4054
4054
4054
4054
4054
4054
4054
4054
4054
4054
4054
4054
4054
4054
4054
4054
4054
4054
4054
4054
4054
4054
4054
4054
4054
4054
4054
4054
4054
4054
4054
4054
4054
4054
4054
4054
4054
4054
4054
4054
4054
4054
4054
4054
4054
4054
4054
4054
4054
4054
4054
4054
4054
4054
4054
4054
4054
4054
4054
4054
4054
4054
4054
4054
4054
4054
4054
4054
4054
4054
4054
4054
4054
4054
4054
4054
4054
4054
4054
4054
4054
4054
4054
4054
4054
4054
4054
4054
4054
4054
4054
4054
4054
4054
4054
4054
4054
4054
4054
4054
4054
4054
4054
4054
4054
4054
4054
4054
4054
4054
4054
4054
4054
4054
4054
4054
4054
4054
4054
4054
4054
4054
4054
4054
4054
4054
4054
4054
4054
4054
4054
4054
4054
4054
4054
4054
4054
4054
4054
4054
4054
4054
4054
4054
4054
4054
4054
4054
4054
4054
4054
4054
4054
4054
4054
4054
4054
4054
4054
4054
4054
4054
4054
4054
4054
4054
4054
4054
4054
4054
4054
4054
4054
4054
4054
4054
4054
4054
4054
4054
4054
4054
4054
4054
4054
4054
4054
4054
4054
4054
4054
4054
4054
4054
4054
4054
4054
4054
4054
4054
4054
4054
4054
4054
4054
4054
4054
4054
4054
4054
4054
4054
4054
4054
4054
4054
4054
4054
4054
4054
4054
4054
4054
4054
4054
4054
4054
4054
4054
4054
4054
4054
4054
4054
4054
4054
4054
4054
4054
4054
4054
4054
4054
4054
4054
4054
4054
4054
4054
4054
4054
4054
4054
4054
4054
4054
4054
4054
4054
4054
4054
4054
4054
4054
4054
4054
4054
4054
4054
4054
